objective value:                                   -7
t_n_1                                               1 	(obj:-1)
t_n_123                                             1 	(obj:-1)
t_n_523                                             1 	(obj:-1)
t_n_627                                             1 	(obj:-1)
t_n_764                                             1 	(obj:-1)
t_n_814                                             1 	(obj:-1)
t_n_832                                             1 	(obj:-1)
